mixintcount/benchmarks/random_v2l/3_3_316.smt2
(set-logic QF_LIA)
(set-info :ran/ran2.smt2)
(set-info :smt-lib-version 2.0)
(declare-fun x1 () Int)
(declare-fun x2 () Int)
(declare-fun x3 () Int)
(assert (<= (+ (* 10 x1) (* 5 x2) (* (- 8) x3) ) (- 286)))
(assert (<= (+ (* (- 10) x1) (* 7 x2) (* 7 x3) ) 178))
(assert (<= (+ (* 3 x1) (* (- 8) x2) (* (- 1) x3) ) 151))
(assert (<= (+ (* (- 10) x1) (* (- 1) x2) (* (- 6) x3) ) 302))
(assert (<= (+ (* (- 7) x1) (* 4 x2) (* 8 x3) ) 7))
(assert (<= (+ (* 6 x1) (* (- 2) x2) (* 8 x3) ) 135))
(assert (<= (+ (* 1 x1) (* 0 x2) (* 0 x3) ) 316))
(assert (<= (+ (* (- 1) x1) (* 0 x2) (* 0 x3) ) 316))
(assert (<= (+ (* 0 x1) (* 1 x2) (* 0 x3) ) 316))
(assert (<= (+ (* 0 x1) (* (- 1) x2) (* 0 x3) ) 316))
(assert (<= (+ (* 0 x1) (* 0 x2) (* 1 x3) ) 316))
(assert (<= (+ (* 0 x1) (* 0 x2) (* (- 1) x3) ) 316))
