mixintcount/benchmarks/random_v2l/3_3_316.in
12 5
#	x1	x2	x3;		0 = Real; 1 = Integer
	1	1	1
1	10	5	-8	-286
1	-10	7	7	178
1	3	-8	-1	151
1	-10	-1	-6	302
1	-7	4	8	7
1	6	-2	8	135
1	1	0	0	316
1	-1	0	0	316
1	0	1	0	316
1	0	-1	0	316
1	0	0	1	316
1	0	0	-1	316
